
(set-logic ALL) 

(declare-datatype MyList ((Nil) (Cons (head Real) (tail MyList)) )) 
(declare-fun l0 () MyList) 
(declare-fun l1 () MyList) 
(declare-fun l2 () MyList) 
(declare-fun l3 () MyList) 
(declare-fun i0 () Real) 
(declare-fun i1 () Real) 
(assert (is-Nil Nil) )
(assert (= l3 Nil) )
(assert (not (= l2 Nil)) )
(assert (is-Cons l0) )
(assert (not (= l0 l2)) )
(assert (and (is-Nil Nil) (is-Nil l0) (is-Cons Nil) (= l3 Nil)) )
(assert (= l0 Nil) )
(assert (is-Cons Nil) )
(check-sat)
